n_res = 4;
rcap = [29, 25, 88, 115];
rtype = [1, 1, 2, 2];
n_tasks = 16;
modes = [ {1, 2, 3}, {4, 5, 6}, {7, 8, 9}, {10, 11, 12}, {13, 14, 15}, {16, 17, 18}, {19, 20, 21}, {22, 23, 24}, {25, 26, 27}, {28, 29, 30}, {31, 32, 33}, {34, 35, 36}, {37, 38, 39}, {40, 41, 42}, {43, 44, 45}, {46, 47, 48} ];
succ = [ {5, 6, 7}, {4, 6, 7}, {9, 10}, {12, 15}, {8, 9, 15}, {10, 11, 15}, {9, 10}, {11}, {11, 12}, {12}, {13, 16}, {13, 16}, {14}, {}, {}, {} ];
n_opt = 48;
dur = [3, 3, 6, 4, 6, 7, 1, 8, 8, 1, 3, 6, 1, 1, 7, 1, 2, 10, 2, 2, 5, 3, 5, 5, 1, 4, 10, 2, 5, 6, 1, 7, 9, 2, 3, 5, 3, 9, 9, 2, 6, 9, 1, 6, 8, 9, 10, 10];
rreq = [|  4,  5,  1,  6,  5,  5,  9,  8,  8,  5,  5,  4,  5,  4,  1,  9,  7,  6,  6,  6,  6,  9,  4,  3,  6,  5,  5,  6,  6,  5, 10,  9,  9,  4,  3,  2,  6,  2,  4,  8,  5,  3,  6,  3,  3,  5,  2,  4
        |  8,  7,  5,  5,  5,  1,  7,  5,  6,  3,  2,  2,  7,  8,  4,  7,  7,  5,  6,  7,  4,  8,  6,  5,  4,  2,  2, 10,  8,  6,  5,  3,  3, 10,  9,  9, 10,  9, 10,  8,  8,  8,  3,  2,  1,  6,  6,  6
        |  6,  7,  6,  4,  3,  2,  4,  4,  4,  7,  6,  5,  7,  5,  3,  9,  8,  6,  2,  2,  2,  6,  3,  5,  2,  1,  1,  2,  1,  1,  6,  5,  4,  9,  9,  8,  6,  5,  4,  6,  3,  2,  8,  8,  8,  3,  3,  1
        |  5,  5,  4,  5,  5,  2, 10,  6,  5,  9,  8,  6,  6,  7,  3,  8,  6,  5,  7,  6,  5,  7,  7,  7,  8,  7,  4, 10,  8,  7,  4,  3,  2, 10,  5,  4,  5,  5,  5,  8,  7,  7,  9,  8,  8,  3,  3,  3 |];
